54
75
60	17
59	17
58	13
57	20
56	7
55	19
54	20
53	19
52	20
51	12
50	20
49	27
48	21
47	24
46	15
45	21
44	19
43	19
42	20
41	12
40	16
39	18
38	17
37	10
36	24
35	21
34	18
33	19
32	14
31	23
30	30
29	21
28	13
27	22
26	20
25	20
24	16
23	27
22	20
21	27
20	15
19	21
18	30
17	17
16	14
15	13
14	20
13	15
12	14
11	17
10	12
9	16
8	15
7	23
